mixintcount/benchmarks/random_v2l/4_4_5011.in
16 6
#	x1	x2	x3	x4;		0 = Real; 1 = Integer
	1	1	1	1
1	-2	4	1	3	-1998
1	-10	-10	5	-10	-1664
1	1	-7	9	1	-2251
1	-3	-1	-2	5	-2810
1	9	-6	-8	-1	2410
1	0	6	0	1	3818
1	-8	8	10	3	2558
1	-9	1	0	5	3666
1	1	0	0	0	5011
1	-1	0	0	0	5011
1	0	1	0	0	5011
1	0	-1	0	0	5011
1	0	0	1	0	5011
1	0	0	-1	0	5011
1	0	0	0	1	5011
1	0	0	0	-1	5011
